sets/C/cp-n27-kk.vrp
NAME : (null)
COMMENT : (null)
TYPE : CVRP
DIMENSION : 27
EDGE_WEIGHT_TYPE : EUC_2D
CAPACITY : 73
NODE_COORD_SECTION
 1  23  21
 2  19  18
 3  11  15
 4   8  21
 5  25  19
 6  24   4
 7   8   8
 8   1   6
 9  18   7
10  15   9
11  19  15
12   5   3
13  10  12
14   7  10
15  20  11
16   4   8
17  20  22
18  15  10
19  15   0
20  18  22
21  11  11
22  24  15
23  11   2
24   3  15
25   1  10
26  11  20
27   7   0
DEMAND_SECTION
 1   0
 2  19
 3  16
 4  14
 5  21
 6   2
 7   8
 8  15
 9  20
10   6
11   4
12  11
13  20
14  19
15   4
16  21
17   5
18  18
19   6
20  18
21  10
22   1
23  19
24  13
25   4
26   5
27   4
DEPOT_SECTION
 1
-1
EOF