sets/C/cp-n27-kk.opt
Route #1: 19 25 3 2 1
Route #2: 4
Route #3: 13 6 12 20 9 10
Route #4: 26 11 7 15 24 23 16
Route #5: 21 5 18 22 17 8 14
cost 213
